NAME: cum180.tsp
TYPE: TSP
COMMENT: User-generated TSP file
DIMENSION: 180
EDGE_WEIGHT_TYPE: EUC_2D
NODE_COORD_SECTION
1 127.0 158.0
2 13.0 45.0
3 96.0 61.0
4 61.0 91.0
5 35.0 1.0
6 75.0 17.0
7 116.0 15.0
8 19.0 12.0
9 81.0 157.0
10 127.0 21.0
11 110.0 131.0
12 33.0 11.0
13 58.0 124.0
14 59.0 154.0
15 169.0 52.0
16 93.0 102.0
17 115.0 16.0
18 57.0 90.0
19 46.0 87.0
20 156.0 96.0
21 29.0 72.0
22 47.0 119.0
23 35.0 114.0
24 81.0 54.0
25 39.0 133.0
26 172.0 28.0
27 35.0 127.0
28 130.0 113.0
29 37.0 156.0
30 154.0 73.0
31 166.0 6.0
32 177.0 17.0
33 87.0 55.0
34 121.0 23.0
35 70.0 85.0
36 136.0 6.0
37 72.0 175.0
38 133.0 46.0
39 86.0 167.0
40 61.0 27.0
41 8.0 176.0
42 76.0 57.0
43 141.0 131.0
44 18.0 14.0
45 22.0 86.0
46 151.0 110.0
47 154.0 85.0
48 122.0 54.0
49 11.0 137.0
50 78.0 166.0
51 122.0 18.0
52 177.0 62.0
53 168.0 133.0
54 84.0 71.0
55 52.0 70.0
56 51.0 30.0
57 86.0 58.0
58 99.0 81.0
59 136.0 10.0
60 67.0 173.0
61 118.0 123.0
62 122.0 61.0
63 71.0 32.0
64 98.0 89.0
65 54.0 19.0
66 60.0 107.0
67 19.0 167.0
68 78.0 2.0
69 109.0 178.0
70 163.0 119.0
71 114.0 85.0
72 73.0 39.0
73 154.0 122.0
74 66.0 56.0
75 87.0 86.0
76 22.0 124.0
77 120.0 2.0
78 153.0 88.0
79 35.0 151.0
80 154.0 167.0
81 36.0 164.0
82 57.0 91.0
83 51.0 10.0
84 20.0 49.0
85 78.0 7.0
86 56.0 32.0
87 97.0 153.0
88 122.0 76.0
89 172.0 16.0
90 29.0 22.0
91 127.0 59.0
92 170.0 57.0
93 101.0 36.0
94 29.0 47.0
95 53.0 99.0
96 124.0 89.0
97 159.0 180.0
98 10.0 126.0
99 150.0 44.0
100 169.0 103.0
101 116.0 26.0
102 91.0 1.0
103 6.0 86.0
104 153.0 177.0
105 67.0 163.0
106 161.0 11.0
107 82.0 75.0
108 74.0 16.0
109 175.0 25.0
110 132.0 130.0
111 173.0 6.0
112 141.0 68.0
113 143.0 126.0
114 65.0 4.0
115 84.0 86.0
116 60.0 175.0
117 3.0 154.0
118 21.0 109.0
119 13.0 82.0
120 57.0 160.0
121 44.0 64.0
122 36.0 167.0
123 114.0 42.0
124 45.0 32.0
125 100.0 28.0
126 113.0 27.0
127 128.0 61.0
128 8.0 141.0
129 10.0 75.0
130 16.0 88.0
131 19.0 59.0
132 102.0 158.0
133 162.0 34.0
134 142.0 177.0
135 164.0 128.0
136 176.0 124.0
137 177.0 20.0
138 139.0 49.0
139 55.0 113.0
140 128.0 177.0
141 76.0 37.0
142 40.0 114.0
143 8.0 22.0
144 137.0 79.0
145 71.0 159.0
146 153.0 151.0
147 144.0 128.0
148 33.0 52.0
149 138.0 142.0
150 92.0 4.0
151 171.0 118.0
152 35.0 22.0
153 102.0 64.0
154 58.0 46.0
155 145.0 102.0
156 152.0 164.0
157 131.0 59.0
158 31.0 122.0
159 116.0 14.0
160 141.0 152.0
161 61.0 119.0
162 86.0 125.0
163 115.0 169.0
164 114.0 129.0
165 134.0 22.0
166 93.0 55.0
167 11.0 179.0
168 88.0 7.0
169 45.0 148.0
170 143.0 31.0
171 145.0 62.0
172 87.0 4.0
173 55.0 71.0
174 77.0 46.0
175 143.0 160.0
176 2.0 120.0
177 112.0 86.0
178 41.0 128.0
179 38.0 51.0
180 88.0 33.0
EOF





